90 1838
44 2 68 48 47 49 89 66 39 63 54 38 69 35 45 13 65 81 46 40 84 83 29 50 72 60 30 79 9 71 36 55
64 51 11 12 8 76 6 74 82 31 4 62 32 37 85 86 88 26 24 15 7 57 10 1 3 43 33 21 17 53 77 0 23 18
5 80 78 22 87 14 16 34 75 41 27 70 59 20 67 42 61 73 56 19 28 25 52 58
